<instance format="XCSP3" type="CSP">
  <variables>
    <var id="x0"> 1 2 4 5 14 </var>
    <var id="x1"> 1 4 5 14 </var>
    <var id="x2"> 2 4..6 14 </var>
    <var id="x3"> 1 2 5 10 14 </var>
    <var id="x4"> 1 2 5 14 </var>
    <var id="x5"> 1 5 6 10 14 </var>
    <var id="x6"> 2 4 5 10 14 </var>
    <var id="x7"> 0..2 4 5 14 </var>
    <var id="x8"> 1 4 </var>
    <var id="x9"> 2 4 5 14 </var>
    <var id="x10"> 0..2 5 14 </var>
    <var id="x11"> 1 4 14 </var>
    <var id="x12"> 2 </var>
    <var id="x13"> 2 4 5 9 14 </var>
    <var id="x14"> 1 4 9 13 </var>
    <var id="x15"> 1 4 10 13 </var>
    <var id="x16"> 0 4 9 10 </var>
    <var id="x17"> 1 4 13 </var>
    <var id="x18"> 2 4 10 13 </var>
    <var id="x19"> 0 9 10 </var>
    <var id="x20"> 2 4 9 10 </var>
    <var id="x21"> 4 11 13 14 </var>
    <var id="x22"> 4 7 12 14 </var>
    <var id="x23"> 10 11 14 </var>
    <var id="x24"> 4 11..14 </var>
    <var id="x25"> 4 10 13 14 </var>
    <var id="x26"> 7 11..13 </var>
    <var id="x27"> 7 10 12 14 </var>
    <var id="x28"> 5 9 13 14 </var>
    <var id="x29"> 7 9 14 </var>
    <var id="x30"> 2 7 13 14 </var>
    <var id="x31"> 5 6 9 13 14 </var>
    <var id="x32"> 2 6 7 13 </var>
    <var id="x33"> 5 7 9 14 </var>
    <var id="x34"> 2 5 7 9 14 </var>
    <var id="x35"> 1 7 13 </var>
    <var id="x36"> 7 8 14 </var>
    <var id="x37"> 2 7 12 14 </var>
    <var id="x38"> 1 2 12..14 </var>
    <var id="x39"> 1 12..14 </var>
    <var id="x40"> 2 13 14 </var>
    <var id="x41"> 7 12 14 </var>
    <var id="x42"> 1 3 5 11 13 14 </var>
    <var id="x43"> 1 7 13 14 </var>
    <var id="x44"> 1 3 7 14 </var>
    <var id="x45"> 1 5 13 14 </var>
    <var id="x46"> 1 11 13 14 </var>
    <var id="x47"> 3 7 11 13 </var>
    <var id="x48"> 5 7 14 </var>
    <var id="x49"> 1 2 4 7 14 </var>
    <var id="x50"> 1 3 4 6 7 14 </var>
    <var id="x51"> 2 4 6 7 14 </var>
    <var id="x52"> 1 2 14 </var>
    <var id="x53"> 1 2 14 </var>
    <var id="x54"> 1 4 6 14 </var>
    <var id="x55"> 2 3 6 7 </var>
    <var id="x56"> 0 4 5 7 14 </var>
    <var id="x57"> 4 5 14 </var>
    <var id="x58"> 4 7 </var>
    <var id="x59"> 0 4 7 8 14 </var>
    <var id="x60"> 4 7 12 14 </var>
    <var id="x61"> 5 8 14 </var>
    <var id="x62"> 0 5 7 12 14 </var>
    <var id="x63"> 1 4 5 7 </var>
    <var id="x64"> 1 4 7 12 13 </var>
    <var id="x65"> 1 5 10 </var>
    <var id="x66"> 1 5 12 13 </var>
    <var id="x67"> 1 5 10 13 </var>
    <var id="x68"> 4 5 10 13 </var>
    <var id="x69"> 7 12 13 </var>
    <var id="x70"> 2 4 7 14 </var>
    <var id="x71"> 3 4 6 7 10 14 </var>
    <var id="x72"> 2 10 14 </var>
    <var id="x73"> 6 10 14 </var>
    <var id="x74"> 2..4 10 14 </var>
    <var id="x75"> 7 10 14 </var>
    <var id="x76"> 2 4 7 10 14 </var>
    <var id="x77"> 4 5 9 11 13 14 </var>
    <var id="x78"> 4 9 10 14 </var>
    <var id="x79"> 4 13 14 </var>
    <var id="x80"> 4 10 14 </var>
    <var id="x81"> 5 13 14 </var>
    <var id="x82"> 11 13 </var>
    <var id="x83"> 4 5 9 10 14 </var>
    <var id="x84"> 1 4 5 14 </var>
    <var id="x85"> 1 4 6 10 11 </var>
    <var id="x86"> 4 10 14 </var>
    <var id="x87"> 1 4 6 10 14 </var>
    <var id="x88"> 1 5 10 11 14 </var>
    <var id="x89"> 1 4 6 11 12 14 </var>
    <var id="x90"> 4 5 10 14 </var>
    <var id="x91"> 5 10 12 14 </var>
    <var id="x92"> 0..2 14 </var>
    <var id="x93"> 1 3 9 14 </var>
    <var id="x94"> 1 10 </var>
    <var id="x95"> 0 9 10 14 </var>
    <var id="x96"> 1 3 10 14 </var>
    <var id="x97"> 2 14 </var>
    <var id="x98"> 1 9 10 14 </var>
    <var id="x99"> 5 7 14 </var>
    <var id="x100"> 6 7 11 13 </var>
    <var id="x101"> 6 7 14 </var>
    <var id="x102"> 5..7 12 14 </var>
    <var id="x103"> 5 12..14 </var>
    <var id="x104"> 5 6 13 14 </var>
    <var id="x105"> 5 13 14 </var>
  </variables>
  <constraints>
    <group>
      <allDifferent> %... </allDifferent>
      <args> x0 x1 x2 x3 x4 x5 x6 </args>
      <args> x7 x8 x9 x10 x11 x12 x13 </args>
      <args> x14 x15 x16 x17 x18 x19 x20 </args>
      <args> x21 x22 x23 x24 x25 x26 x27 </args>
      <args> x28 x29 x30 x31 x32 x33 x34 </args>
      <args> x35 x36 x37 x38 x39 x40 x41 </args>
      <args> x42 x43 x44 x45 x46 x47 x48 </args>
      <args> x49 x50 x51 x52 x53 x54 x55 </args>
      <args> x56 x57 x58 x59 x60 x61 x62 </args>
      <args> x63 x64 x65 x66 x67 x68 x69 </args>
      <args> x70 x71 x72 x73 x74 x75 x76 </args>
      <args> x77 x78 x79 x80 x81 x82 x83 </args>
      <args> x84 x85 x86 x87 x88 x89 x90 x91 </args>
      <args> x92 x93 x94 x95 x96 x97 x98 </args>
      <args> x99 x100 x101 x102 x103 x104 x105 </args>
      <args> x0 x7 x56 x63 x84 x92 x99 </args>
      <args> x1 x14 x21 x28 x42 x57 x77 x93 </args>
      <args> x8 x15 x35 x58 x85 x94 x100 </args>
      <args> x16 x29 x36 x59 x78 x86 x95 </args>
      <args> x30 x43 x49 x60 x64 x70 x79 </args>
      <args> x44 x50 x71 x80 x87 x96 x101 </args>
      <args> x2 x9 x22 x37 x51 x97 x102 </args>
      <args> x3 x23 x52 x61 x65 x72 x88 </args>
      <args> x4 x10 x38 x53 x66 x81 x103 </args>
      <args> x5 x31 x45 x67 x73 x98 x104 </args>
      <args> x11 x17 x24 x39 x46 x54 x89 </args>
      <args> x18 x25 x40 x68 x74 x90 x105 </args>
      <args> x12 x26 x32 x47 x55 x69 x82 </args>
      <args> x19 x27 x33 x41 x62 x75 x91 </args>
      <args> x6 x13 x20 x34 x48 x76 x83 </args>
    </group>
  </constraints>
</instance>

